c ---- [ banner ] ------------------------------------------------------------
c
c Kissat SAT Solver
c 
c Copyright (c) 2021-2023 Armin Biere University of Freiburg
c Copyright (c) 2019-2021 Armin Biere Johannes Kepler University Linz
c 
c Version 3.1.1 unknown
c gcc (Ubuntu 9.4.0-1ubuntu1~20.04.2) 9.4.0 -W -Wall -O3 -DNDEBUG
c Mon Feb 26 18:18:52 CET 2024 Linux OptiPlex-7080 5.15.0-88-generic x86_64
c
c ---- [ parsing ] -----------------------------------------------------------
c
c opened and reading DIMACS file:
c
c   /home/oliveras/SAT-comp-2023//bab57c8799cb05c8c1757c60d4ebdefd-satcoin-genesis-UNSAT-17400.cnf
c
c parsed 'p cnf 134781 648806' header
c closing input after reading 14384710 bytes (14 MB)
c finished parsing after 0.20 seconds
c
c ---- [ options ] -----------------------------------------------------------
c
c --seed=1                         (different from default '0')
c
c ---- [ solving ] -----------------------------------------------------------
c
c  seconds switched conflicts    irredundant  variables
c         MB reductions redundant        trail      remaining
c          level restarts    binary         glue
c
c *  0.20 48 0 0 0  0   0   0 51675 596986 0% 0 125485 93%
c {  0.20 48 0 0 0  0   0   0 51675 596986 0% 0 125485 93%
c i  0.20 49 5 0 0  0   1   0 51675 596986 0% 0 125475 93%
c -  0.52 51 349 0 1 275 1002 440 51098 596986 4% 14 125475 93%
c }  0.52 51 349 1 1 275 1002 440 51098 596986 4% 14 125475 93%
c [  0.52 51 0 1 1 275 1002 440 51098 596986 0% 0 125475 93%
c B  0.52 51 0 1 1 275 1002 440 51098 596986 0% 0 125475 93%
c ]  0.79 51 734 2 1 275 1145 577 51103 596986 23% 22 125475 93%
c {  0.79 51 349 2 1 275 1145 577 51103 596986 4% 14 125475 93%
c i  0.83 54 442 2 1 291 1914 1262 51148 596986 3% 13 125473 93%
c -  0.84 54 434 2 2 298 2004 795 51146 596986 3% 13 125473 93%
c }  0.85 54 423 3 2 301 2146 918 51147 596986 4% 13 125473 93%
c [  0.85 54 734 3 2 301 2146 918 51147 596986 23% 22 125473 93%
c W  0.94 57 734 3 2 301 2146 918 51147 596005 23% 22 125473 93%
c ]  1.01 57 679 4 2 301 2195 967 51147 596005 19% 112 125473 93%
c {  1.01 57 423 4 2 301 2195 967 51147 596005 4% 13 125473 93%
c i  1.01 57 428 4 2 301 2201 972 51147 596005 4% 13 125472 93%
c i  1.01 57 431 4 2 301 2203 973 51147 596005 4% 13 125466 93%
c d  2.87 61 339 4 2 448 3380 2058 51624 595460 5% 12 125437 93%
c b  2.89 61 339 4 2 448 3380 2058 51624 595460 5% 12 125414 93%
c
c  seconds   switched conflicts       irredundant   variables
c         MB  reductions   redundant          trail       remaining
c           level restarts        binary          glue
c
c u  2.92 61 339 4 2 448 3380 2056 51626 595460 5% 12 125414 93%
c v  2.95 61 339 4 2 448 3380 2056 51626 595460 5% 12 125414 93%
c w  3.29 63 339 4 2 448 3380 2099 51787 594605 5% 12 125089 93%
c =  3.52 65 339 4 2 448 3380 2099 54881 592921 5% 12 123607 92%
c d  3.55 65 339 4 2 448 3380 2089 51766 592419 5% 12 123567 92%
c t  3.59 65 339 4 2 448 3380 2089 49843 592419 5% 12 123567 92%
c b  3.60 65 339 4 2 448 3380 2089 49843 592419 5% 12 123565 92%
c i  3.60 65 339 4 2 448 3380 2089 49843 592419 5% 12 123565 92%
c -  3.62 65 380 4 3 448 3418 1275 49253 592419 5% 12 123565 92%
c } 15.97 65 483 5 3 486 4548 2332 49300 592419 13% 12 123565 92%
c [ 15.97 65 679 5 3 486 4548 2332 49300 592419 19% 112 123565 92%
c I 15.98 65 679 5 3 486 4548 2332 49300 592419 19% 112 123565 92%
c - 16.36 67 542 5 4 486 5151 1733 49300 592419 11% 69 123565 92%
c d 17.06 67 515 5 4 488 6753 3323 49280 592413 9% 115 123553 92%
c d 17.08 67 515 5 4 488 6753 3323 49278 592413 9% 115 123552 92%
c u 17.14 67 515 5 4 488 6753 3319 49282 592413 9% 115 123552 92%
c v 17.22 67 515 5 4 488 6753 3317 49284 592413 9% 115 123552 92%
c w 17.81 67 515 5 4 488 6753 4519 53517 586976 9% 115 123551 92%
c = 18.27 67 515 5 4 488 6753 4519 55513 586975 9% 115 122553 91%
c d 18.31 67 515 5 4 488 6753 4519 53519 586972 9% 115 122553 91%
c
c  seconds   switched conflicts       irredundant    variables
c         MB  reductions   redundant          trail        remaining
c           level restarts        binary          glue
c
c d 18.33 67 515 5 4 488 6753 4519 53517 586972 9% 115 122552 91%
c t 18.37 67 515 5 4 488 6753 4519 47336 586972 9% 115 122552 91%
c i 18.38 67 515 5 4 488 6753 4519 47336 586972 9% 115 122552 91%
c - 18.46 67 517 5 5 488 7152 3037 47333 586972 8% 114 122552 91%
c B 18.68 67 521 5 5 488 8319 4204 47333 586972 7% 111 122552 91%
c - 18.77 67 483 5 6 489 9388 3102 47333 586972 7% 99 122552 91%
c - 19.66 67 419 5 7 491 11837 3446 47335 586972 6% 78 122552 91%
c u 20.81 67 383 5 7 492 13755 5323 47365 586972 6% 72 122552 91%
c v 20.90 67 383 5 7 492 13755 5323 47365 586972 6% 72 122552 91%
c w 21.20 67 383 5 7 492 13755 6336 47367 585957 6% 72 122552 91%
c = 21.42 67 383 5 7 492 13755 6336 48131 585957 6% 72 122170 91%
c d 21.46 67 383 5 7 492 13755 6336 47367 585957 6% 72 122170 91%
c t 21.50 67 383 5 7 492 13755 6336 46573 585957 6% 72 122170 91%
c W 21.93 72 381 5 7 492 13849 6430 46573 585957 6% 72 122170 91%
c - 26.13 72 374 5 8 492 14482 4848 46574 585957 8% 79 122170 91%
c ] 29.12 72 369 6 8 492 14926 5292 46574 585957 9% 83 122170 91%
c { 29.12 72 483 6 8 492 14926 5292 46574 585957 13% 12 122170 91%
c s 71.10 72 336 6 8 502 16890 7203 46881 585217 30% 11 122170 91%
c e 72.04 82 336 6 8 502 16890 7203 7074 567566 30% 11 82768 61%
c s 72.10 82 336 6 8 502 16890 7203 7144 549531 30% 11 82768 61%
c
c  seconds   switched  conflicts      irredundant    variables
c         MB  reductions    redundant          trail      remaining
c           level restarts         binary          glue
c
c ^ 72.23 82 336 6 8 502 16890 7203 7144 549531 30% 11 82768 61%
c - 78.59 78 353 6 9 504 17310 2226 7150 549531 32% 11 82768 61%
c } 116.50 80 281 7 9 504 18995 3903 7154 549531 44% 10 82768 61%
c [ 116.50 80 369 7 9 504 18995 3903 7154 549531 9% 83 82768 61%
c - 117.53 80 362 7 10 505 20310 3115 7154 549531 9% 82 82768 61%
c O 122.93 80 356 7 10 506 21377 4171 7155 549531 10% 91 82768 61%
c - 131.36 80 344 7 11 507 23473 3538 7159 549531 13% 98 82768 61%
c u 134.90 80 339 7 11 508 24624 4670 7169 549531 13% 101 82768 61%
c v 134.98 80 339 7 11 508 24624 4670 7169 549531 13% 101 82768 61%
c w 135.72 80 339 7 11 508 24624 8310 7217 545839 13% 101 82767 61%
c = 136.42 80 339 7 11 508 24624 8310 7229 545839 13% 101 82761 61%
c d 136.45 80 339 7 11 508 24624 8310 7220 545836 13% 101 82761 61%
c t 136.50 80 339 7 11 508 24624 8310 7179 545836 13% 101 82761 61%
c i 136.50 80 339 7 11 508 24624 8310 7179 545836 13% 101 82761 61%
c - 144.87 80 329 7 12 509 26789 7445 7178 545836 14% 106 82761 61%
c - 148.25 80 322 7 13 510 30254 7657 7179 545836 13% 101 82761 61%
c B 148.31 80 321 7 13 510 31140 8533 7179 545836 13% 99 82761 61%
c s 154.72 80 316 7 13 512 33396 10781 7203 545802 13% 100 82761 61%
c e 155.22 80 316 7 13 512 33396 10781 4740 549473 13% 100 81330 60%
c s 155.24 80 316 7 13 512 33396 10781 4766 549432 13% 100 81330 60%
c
c  seconds    switched   conflicts       irredundant     variables
c          MB   reductions     redundant          trail       remaining
c            level  restarts          binary          glue
c
c ^ 155.27 80 316 7 13 512 33396 10781 4766 549432 13% 100 81330 60%
c - 157.23 80 315 7 14 513 33859 7337 4766 549432 13% 101 81330 60%
c - 169.14 80 310 7 15 516 37601 7742 4769 549432 14% 107 81330 60%
c u 169.39 80 309 7 15 516 39299 9427 4771 549432 14% 104 81330 60%
c v 169.42 80 309 7 15 516 39299 9427 4771 549432 14% 104 81330 60%
c w 170.18 80 309 7 15 516 39299 9460 4795 549375 14% 104 81330 60%
c = 170.81 80 309 7 15 516 39299 9460 4814 549283 14% 104 81319 60%
c d 170.84 80 309 7 15 516 39299 9427 4851 549190 14% 104 81319 60%
c t 170.89 80 309 7 15 516 39299 9427 4836 549190 14% 104 81319 60%
c - 172.83 80 307 7 16 517 41475 7863 4833 549190 13% 103 81319 60%
c W 176.11 82 306 7 16 517 43363 9749 4834 549190 13% 102 81319 60%
c - 177.56 83 303 7 17 518 45475 8013 4834 549190 13% 99 81319 60%
c ] 188.55 83 300 8 17 518 47722 10253 4837 549190 14% 102 81319 60%
c { 188.55 83 281 8 17 518 47722 10253 4837 549190 44% 10 81319 60%
c - 202.99 83 267 8 18 1028 49598 8983 4848 549190 41% 12 81319 60%
c - 275.20 85 188 8 19 1028 53840 10235 4868 549190 50% 11 81319 60%
c } 276.23 85 188 9 19 1028 53882 10277 4868 549190 50% 11 81319 60%
c [ 276.23 85 300 9 19 1028 53882 10277 4868 549190 14% 102 81319 60%
c - 292.50 85 298 9 20 1031 58200 10841 4871 549190 15% 108 81319 60%
c u 292.60 85 298 9 20 1031 58202 10823 4881 549190 15% 108 81318 60%
c
c  seconds    switched    conflicts       irredundant     variables
c          MB   reductions      redundant          trail       remaining
c            level   restarts          binary          glue
c
c v 292.64 85 298 9 20 1031 58202 10815 4882 549190 15% 108 81318 60%
c w 293.36 85 298 9 20 1031 58202 10854 4974 549036 15% 108 81317 60%
c = 293.99 85 298 9 20 1031 58202 10854 4998 548991 15% 108 81303 60%
c d 294.02 85 298 9 20 1031 58202 10764 4974 548964 15% 108 81303 60%
c t 294.07 85 298 9 20 1031 58202 10764 4901 548964 15% 108 81303 60%
c i 294.07 85 298 9 20 1031 58202 10764 4901 548964 15% 108 81303 60%
c I 294.30 85 298 9 20 1031 58267 10829 4901 548964 15% 108 81303 60%
c - 312.31 85 295 9 21 1034 62673 10920 4887 548964 16% 112 81303 60%
c - 339.26 87 292 9 22 1036 67255 11007 4888 548964 18% 120 81303 60%
c s 344.08 87 291 9 22 1037 69156 12904 4894 548935 18% 120 81303 60%
c e 344.55 65 291 9 22 1037 69156 12904 4363 549947 18% 120 81007 60%
c s 344.56 65 291 9 22 1037 69156 12904 4371 549694 18% 120 81007 60%
c e 344.58 65 291 9 22 1037 69156 12904 4371 549690 18% 120 81006 60%
c ^ 344.58 65 291 9 22 1037 69156 12904 4371 549690 18% 120 81006 60%
c ] 349.47 76 291 10 22 1039 71373 14158 4371 549690 18% 121 81006 60%
c { 349.47 77 188 10 22 1039 71373 14158 4371 549690 50% 11 81006 60%
c - 362.96 81 183 10 23 1064 71945 11047 4371 549690 52% 11 81006 60%
c - 459.11 81 183 10 24 1066 76740 12275 4374 549690 58% 10 81006 60%
c } 532.13 81 156 11 24 1066 80001 15524 4375 549690 63% 10 81006 60%
c [ 532.13 81 291 11 24 1066 80001 15524 4375 549690 18% 121 81006 60%
c
c  seconds     switched    conflicts       irredundant     variables
c          MB    reductions      redundant          trail       remaining
c            level    restarts          binary          glue
c
c B 532.13 81 291 11 24 1066 80001 15524 4375 549690 18% 121 81006 60%
c u 537.67 81 291 11 24 1067 81457 16974 4381 549690 18% 121 81006 60%
c v 538.17 81 291 11 24 1067 81457 16974 4381 549690 18% 121 81006 60%
c w 538.88 81 291 11 24 1067 81457 17109 4412 549524 18% 121 81006 60%
c t 539.56 81 291 11 24 1067 81457 17109 4386 549524 18% 121 81006 60%
c - 540.55 81 291 11 25 1067 81638 13635 4386 549524 18% 122 81006 60%
c - 551.99 81 290 11 26 1071 86638 14022 4386 549524 18% 120 81006 60%
c - 582.01 81 289 11 27 1072 91737 14120 4386 549524 19% 128 81006 60%
c - 599.11 81 288 11 28 1076 96933 14347 4387 549524 20% 128 81006 60%
c W 623.92 81 287 11 28 1079 100912 18323 4387 549524 21% 132 81006 60%
c - 629.59 81 287 11 29 1079 102224 14702 4391 549524 21% 132 81006 60%
c - 649.91 83 287 11 30 1080 107609 14930 4392 549524 21% 134 81006 60%
c u 657.32 83 287 11 30 1080 109233 16526 4409 549524 21% 135 81006 60%
c v 657.40 83 287 11 30 1080 109233 16524 4411 549524 21% 135 81006 60%
c w 658.08 83 287 11 30 1080 109233 16534 4414 549511 21% 135 81006 60%
c t 658.76 83 287 11 30 1080 109233 16534 4393 549511 21% 135 81006 60%
c - 660.13 83 287 11 31 1081 113086 15216 4394 549511 20% 131 81006 60%
c - 677.30 83 286 11 32 1085 118653 15598 4398 549511 20% 130 81006 60%
c ] 683.20 83 286 12 32 1087 121369 18311 4399 549511 20% 129 81006 60%
c { 683.20 83 156 12 32 1087 121369 18311 4399 549511 63% 10 81006 60%
c
c  seconds     switched    conflicts        irredundant    variables
c          MB    reductions       redundant          trail      remaining
c            level    restarts           binary          glue
c
c i 716.22 83 146 12 32 1110 123110 20032 4411 549511 64% 10 81005 60%
c - 736.44 83 173 12 33 1146 124309 16276 4399 549511 65% 10 81005 60%
c s 790.92 83 157 12 33 1146 126753 18717 4405 549496 68% 10 81005 60%
c e 791.65 83 157 12 33 1146 126753 18717 4086 570487 68% 10 74930 56%
c s 791.73 83 157 12 33 1146 126753 18717 4105 570031 68% 10 74930 56%
c e 791.77 83 157 12 33 1146 126753 18717 4104 570040 68% 10 74928 56%
c ^ 791.77 83 157 12 33 1146 126753 18717 4104 570040 68% 10 74928 56%
c - 869.68 87 143 12 34 1255 130054 14890 4105 570040 70% 9 74928 56%
c } 923.73 87 142 13 34 1326 132848 17624 4136 570040 70% 11 74928 56%
c [ 923.73 87 286 13 34 1326 132848 17624 4136 570040 20% 129 74928 56%
c O 923.73 87 286 13 34 1326 132848 17624 4136 570040 20% 129 74928 56%
c - 937.16 87 285 13 35 1328 135885 16361 4137 570040 20% 131 74928 56%
c u 958.89 89 282 13 35 1332 141692 22128 4163 570040 20% 133 74928 56%
c v 959.10 89 282 13 35 1332 141692 20805 5486 570040 20% 133 74928 56%
c w 959.85 89 282 13 35 1332 141692 20945 5591 569786 20% 133 74927 56%
c t 960.42 89 282 13 35 1332 141692 20937 4181 569779 20% 133 74927 56%
c i 960.42 89 282 13 35 1332 141692 20937 4181 569779 20% 133 74927 56%
c - 960.92 89 282 13 36 1332 141801 16006 4174 569779 20% 133 74927 56%
c - 979.48 89 282 13 37 1335 147804 16485 4174 569779 20% 133 74927 56%
c - 1001.31 89 281 13 38 1339 153887 16771 4174 569779 21% 135 74927 56%
c
c   seconds     switched    conflicts        irredundant     variables
c           MB    reductions       redundant          trail       remaining
c             level    restarts           binary          glue
c
c - 1019.85 89 280 13 39 1340 160052 17081 4174 569779 20% 136 74927 56%
c B 1022.48 89 280 13 39 1340 160588 17617 4174 569779 21% 136 74927 56%
c - 1054.67 90 278 13 40 1341 166296 17288 4174 569779 22% 140 74927 56%
c - 1070.26 91 278 13 41 1346 172620 17494 4174 569779 21% 139 74927 56%
c - 1099.70 91 278 13 42 1348 179023 17774 4174 569779 22% 140 74927 56%
c u 1099.85 91 278 13 42 1349 179135 17875 4185 569779 22% 139 74927 56%
c v 1100.04 91 278 13 42 1349 179135 17875 4185 569779 22% 139 74927 56%
c w 1100.75 91 278 13 42 1349 179135 17934 4197 569708 22% 139 74927 56%
c t 1101.30 91 278 13 42 1349 179135 17934 4178 569708 22% 139 74927 56%
c - 1116.51 91 277 13 43 1353 185504 18211 4178 569708 21% 136 74927 56%
c ] 1119.78 91 277 14 43 1354 186783 19488 4179 569708 21% 136 74927 56%
c { 1119.78 91 142 14 43 1354 186783 19488 4179 569708 70% 11 74927 56%
c - 1235.90 91 127 14 44 1498 192061 20858 4195 569708 72% 10 74927 56%
c i 1250.75 91 125 14 44 1498 192571 21356 4206 569708 72% 10 74924 56%
c - 1340.62 91 147 14 45 1500 198695 21138 4208 569706 70% 10 74924 56%
c i 1345.11 91 147 14 45 1500 198873 21310 4213 569706 70% 10 74923 56%
c } 1345.35 91 171 15 45 1502 201498 23851 4226 569703 65% 9 74923 56%
c [ 1345.35 91 277 15 45 1502 201498 23851 4226 569703 21% 136 74923 56%
c W 1350.33 91 277 15 45 1502 201498 23851 4216 569614 21% 136 74923 56%
c - 1373.00 91 277 15 46 1504 205404 20945 4226 569614 22% 138 74923 56%
c
c   seconds     switched    conflicts        irredundant     variables
c           MB    reductions       redundant          trail       remaining
c             level    restarts           binary          glue
c
c 2 1381.07 91 277 15 46 1507 209038 24569 4224 569614 21% 137 74923 56%
c s 1381.08 91 277 15 46 1507 209038 24569 4250 569550 21% 137 74923 56%
c e 1381.71 68 277 15 46 1507 209038 24569 3563 575737 21% 137 74089 55%
c 2 1381.71 68 277 15 46 1507 209038 24569 3560 575737 21% 137 74089 55%
c s 1381.73 68 277 15 46 1507 209038 24569 3612 574610 21% 137 74089 55%
c e 1381.77 68 277 15 46 1507 209038 24569 3574 574724 21% 137 74071 55%
c ^ 1381.77 68 277 15 46 1507 209038 24569 3574 574724 21% 137 74071 55%
c - 1385.27 80 277 15 47 1508 212189 17848 3586 574713 21% 136 74071 55%
c - 1406.75 80 277 15 48 1513 219044 18738 3586 574713 21% 135 74071 55%
c d 1418.62 80 277 15 48 1514 221518 21196 3582 574713 21% 136 74069 55%
c u 1418.82 82 277 15 48 1514 221518 20919 3859 574713 21% 136 74069 55%
c v 1419.12 84 277 15 48 1514 221518 20844 3934 574713 21% 136 74069 55%
c w 1419.79 84 277 15 48 1514 221518 21069 4009 574406 21% 136 74068 55%
c = 1420.35 84 277 15 48 1514 221518 21069 4047 574358 21% 136 74048 55%
c d 1420.38 84 277 15 48 1514 221518 21056 3991 574358 21% 136 74048 55%
c t 1420.44 84 277 15 48 1514 221518 21056 3593 574358 21% 136 74048 55%
c i 1420.44 84 277 15 48 1514 221518 21056 3593 574358 21% 136 74048 55%
c - 1437.77 84 276 15 49 1515 225972 19292 3586 574358 21% 137 74048 55%
c - 1475.98 86 274 15 50 1516 232972 19677 3586 574358 22% 140 74048 55%
c I 1494.49 86 274 15 50 1519 236849 23549 3586 574358 22% 141 74048 55%
c
c   seconds     switched    conflicts        irredundant     variables
c           MB    reductions       redundant          trail       remaining
c             level    restarts           binary          glue
c
c - 1507.55 86 274 15 51 1521 240044 19965 3588 574358 22% 142 74048 55%
c ] 1523.22 86 273 16 51 1523 244496 24401 3588 574358 22% 141 74048 55%
c { 1523.22 86 171 16 51 1523 244496 24401 3588 574358 65% 9 74048 55%
c - 1574.48 86 176 16 52 1527 247186 21851 3594 574357 66% 9 74048 55%
c i 1585.97 86 174 16 52 1527 247669 22317 3606 574355 66% 9 74047 55%
c - 1587.94 88 174 16 53 1527 254398 23445 3597 574353 57% 9 74047 55%
c - 1589.22 88 206 16 54 1531 261679 26646 3612 574351 49% 9 74047 55%
c } 1598.26 88 209 17 54 1536 262834 27773 3616 574351 49% 9 74047 55%
c [ 1598.26 88 273 17 54 1536 262834 27773 3616 574351 22% 141 74047 55%
c d 1630.44 90 273 17 54 1541 269026 33927 3653 574158 23% 143 74045 55%
c d 1630.47 90 273 17 54 1541 269026 33903 3636 574135 23% 143 74040 55%
c u 1631.53 90 273 17 54 1541 269026 33862 3677 574135 23% 143 74040 55%
c v 1643.82 90 273 17 54 1541 269026 33859 3680 574135 23% 143 74040 55%
c w 1644.49 90 273 17 54 1541 269026 33993 3797 573884 23% 143 74040 55%
c = 1645.25 90 273 17 54 1541 269026 33993 3835 573852 23% 143 74020 55%
c d 1645.30 90 273 17 54 1541 269026 33951 3770 573852 23% 143 74020 55%
c t 1645.37 90 273 17 54 1541 269026 33951 3637 573852 23% 143 74020 55%
c - 1645.38 90 273 17 55 1541 269028 27032 3633 573852 23% 143 74020 55%
c ] 1672.68 90 272 18 55 1542 272781 30784 3633 573852 24% 147 74020 55%
c { 1672.68 90 209 18 55 1542 272781 30784 3633 573852 49% 9 74020 55%
c
c   seconds     switched    conflicts        irredundant   variables
c           MB    reductions       redundant          trail     remaining
c             level    restarts           binary         glue
c
c i 1696.80 90 211 18 55 1548 274213 32190 3643 573851 49% 8 74018 55%
c - 1697.10 92 221 18 56 1548 276444 26968 3646 573850 47% 8 74018 55%
c - 1699.37 92 222 18 57 1551 283928 29458 3660 573845 41% 8 74018 55%
c i 1711.14 92 216 18 57 1555 286748 32161 3675 573845 40% 8 74014 55%
c i 1719.04 92 214 18 57 1555 287069 32474 3682 573845 40% 8 74010 55%
c i 1732.05 92 208 18 57 1556 290583 35846 3695 573845 39% 8 74009 55%
c - 1732.86 92 207 18 58 1556 291478 27688 3681 573844 39% 8 74009 55%
c i 1742.23 92 202 18 58 1556 293155 29285 3691 573844 38% 8 74008 55%
c } 1745.54 92 198 19 58 1556 295126 31134 3695 573844 37% 8 74008 55%
c [ 1745.54 92 272 19 58 1556 295126 31134 3695 573844 24% 147 74008 55%
c B 1745.54 92 272 19 58 1556 295126 31134 3695 573844 24% 147 74008 55%
c - 1752.00 92 275 19 59 1558 299093 30524 3692 573841 23% 144 74008 55%
c - 1771.62 92 275 19 60 1562 306775 30410 3693 573839 23% 142 74008 55%
c - 1798.21 92 274 19 61 1568 314520 28180 3693 573839 23% 144 74008 55%
c ] 1809.62 92 274 20 61 1569 316795 30454 3693 573839 23% 145 74008 55%
c { 1809.62 92 198 20 61 1569 316795 30454 3693 573839 37% 8 74008 55%
c i 1810.94 92 198 20 61 1584 316936 30587 3698 573839 37% 8 74003 55%
c i 1812.34 92 198 20 61 1584 317073 30715 3704 573839 37% 8 73990 55%
c i 1812.87 92 197 20 61 1584 317110 30747 3708 573839 37% 8 73970 55%
c i 1813.09 92 197 20 61 1584 317129 30760 3713 573839 37% 8 73941 55%
c
c   seconds     switched    conflicts        irredundant   variables
c           MB    reductions       redundant          trail     remaining
c             level    restarts           binary         glue
c
c i 1813.20 92 197 20 61 1584 317144 30771 3716 573839 37% 8 73795 55%
c i 1813.23 92 197 20 61 1584 317147 30771 3718 573839 37% 8 73794 55%
c i 1813.23 92 197 20 61 1584 317149 30771 3719 573839 37% 8 73791 55%
c i 1813.25 92 197 20 61 1584 317151 30771 3720 573839 37% 8 73784 55%
c } 1813.27 92 197 20 61 1584 317153 30771 3720 573839 37% 8 16351 12%
c 0 1813.27 92 197 20 61 1584 317153 30771 3720 573839 37% 8 16351 12%
c
c ---- [ result ] ------------------------------------------------------------
c
s UNSATISFIABLE
c
c ---- [ profiling ] ---------------------------------------------------------
c
c        1768.70   97.54 %  search
c         987.78   54.47 %  focused
c         780.92   43.07 %  stable
c          44.37    2.45 %  simplify
c          31.54    1.74 %  probe
c          23.29    1.28 %  vivify
c           8.78    0.48 %  walking
c           6.40    0.35 %  sweep
c           4.05    0.22 %  eliminate
c           1.49    0.08 %  substitute
c           0.92    0.05 %  reduce
c           0.38    0.02 %  subsume
c           0.23    0.01 %  transitive
c           0.20    0.01 %  parse
c           0.13    0.01 %  backbone
c           0.04    0.00 %  warmup
c =============================================
c        1813.27  100.00 %  total
c
c ---- [ statistics ] --------------------------------------------------------
c
c chronological:                         1055                0 %  conflicts
c conflicts:                           317153              174.91 per second
c decisions:                          1009594                3.18 per conflict
c eliminated:                           48059               36 %  variables
c jumped_reasons:                    16259263                0 %  propagations
c propagations:                    6115841290          3372813    per second
c queue_decisions:                     372999               37 %  decision
c random_decisions:                    285224               28 %  decision
c random_sequences:                        39             8132    interval
c reductions:                              61             5199    interval
c rephased:                                16            19822    interval
c restarts:                              1584              200.22 interval
c score_decisions:                     351371               35 %  decision
c strengthened:                         14745                0 %  checks
c substituted:                           2950                2 %  variables
c subsumed:                             20262                0 %  checks
c switched:                                20            15858    interval
c vivified:                             24715                0 %  checks
c vivify_checks:                      6020306           501692    per vivify
c vivify_units:                            25                0 %  variables
c walk_improved:                            5              100 %  walks
c walks:                                    5            63431    interval
c
c ---- [ resources ] ---------------------------------------------------------
c
c maximum-resident-set-size:         96907264 bytes         92 MB
c process-time:                        30m 13s            1813.27 seconds
c
c ---- [ shutting down ] -----------------------------------------------------
c
c exit 20
